
  32    1
  10

   0   0   7 2 3 5 6 7 8 12 
   4   1   3 10 9 4 
   6   3   8 26 22 21 19 17 15 14 13 
   8   3   6 26 22 21 19 17 14 
   5   4   2 11 9 
   6   5   6 26 22 20 18 17 16 
   6   5   5 26 21 20 18 17 
   9   3   3 17 15 13 
   6   1   7 31 26 25 23 22 21 20 
  10   4   4 31 26 22 15 
   3   8   3 20 18 17 
   8   4   2 31 15 
   1   2   5 31 28 25 23 20 
   1   4   4 28 23 20 18 
  10   6   3 28 20 18 
   5   1   3 29 23 21 
   2   4   4 31 28 25 23 
   9   6   3 30 29 25 
   4   3   3 31 29 24 
   4   4   2 29 24 
   6   7   2 28 24 
   8   5   2 28 24 
   9   3   2 30 27 
   9   7   1 27 
   7   6   1 27 
   1   3   1 27 
   2   2   1 32
   6   2   1 32
   7   5   1 32
   1   4   1 32
   7   5   1 32
   0   0   0 
